83
29
0 29 32 33 36 38 43 46 47 51 61 62 63 64 65 66 67 68 70 73 76 77 78 81
1 29 33 36 38 39 40 48 53 54 55 56 57 60 61 63 66 69 71 75 76 79 81 82
2 33 36 39 40 48 51 53 55 61 62 63 65 66 67 68 71 73 76 78 80 81
3 29 32 33 35 36 39 40 44 45 49 50 55 57 58 60 61 62 63 66 67 68 71 73 76 78 81
4 29 32 33 36 38 40 48 50 57 61 68 76 79 81 82
5 29 32 33 35 36 40 41 44 47 52 55 57 62 63 64 66 67 68 74 78 79 81
6 29 33 36 39 46 47 48 49 51 53 55 58 60 61 62 63 64 68 69 73 76 78 79 81
7 29 33 35 39 47 55 60 61 62 64 67 68 70 73 76 78 79
8 29 30 33 39 41 44 46 47 48 51 54 55 56 57 63 65 66 68 70 73 76 78 79 80 81
9 29 32 35 36 38 39 44 46 47 48 50 51 56 57 58 60 62 69 70 73 76 78
10 29 31 36 39 40 42 44 46 49 51 53 56 60 61 62 65 66 68 73 76 80 81 82
11 29 30 35 36 39 42 47 51 53 54 55 58 60 61 63 66 68 73 75 76 80 81
12 31 32 36 40 44 46 49 51 53 56 60 61 63 66 68 72 77 78
13 33 36 38 39 45 49 50 55 56 57 58 60 62 63 67 70 71 72 73 76 79 81
14 29 32 33 36 37 39 47 48 49 50 53 54 56 57 59 60 61 63 66 68 69 77 78 79 80
15 31 33 35 36 37 39 40 44 47 49 50 51 55 58 61 63 69 70 73 77 79 80
16 30 34 41 44 56 63 66 72 76
17 29 36 37 38 40 41 44 45 47 49 50 54 57 60 63 66 69 72 73 76 78
18 47 50 51 53 55 57 58 64 67 68 74 76 77 78
19 30 32 33 36 40 46 49 51 54 55 58 60 61 72 73 76
20 30 33 35 40 46 48 53 55 56 72 77 79
21 29 30 33 35 45 47 49 50 53 57 58 62 65 69 70 72 76 81
22 29 32 35 36 43 44 48 53 57 61 62 64 67 78
23 48 51 55 59 60 66 73
24 40 53 54 55 66 67 72 77 82
25 29 32 54 61 68 79
26 33 46 53 65 68 69
27 38 56 63 67
28 30 35 42 50
